min:x1+x2+x3+x4+x5+x6+x7+x8+x9+x10+x11+x12+x13+x14+x15+x16+x17+x18+x19+x20+x21+x22+x23+x24+x25+x26+x27+x28+x29+x30+x31+x32+x33+x34+x35+x36+x37+x38+x39+x40+x41+x42+x43+x44+x45+x46+x47+x48+x49+x50;
    A1+B1=1;
    A2+B2=1;
    A3+B3=1;
    A4+B4=1;
    A5+B5=1;
    A6+B6=1;
    A7+B7=1;
    A8+B8=1;
    A9+B9=1;
    A10+B10=1;
    A11+B11=1;
    A12+B12=1;
    A13+B13=1;
    A14+B14=1;
    A15+B15=1;
    A16+B16=1;
    A17+B17=1;
    A18+B18=1;
    A19+B19=1;
    A20+B20=1;
    A21+B21=1;
    A22+B22=1;
    A23+B23=1;
    A24+B24=1;
    A25+B25=1;
    A26+B26=1;
    A27+B27=1;
    A28+B28=1;
    A29+B29=1;
    A30+B30=1;
    A31+B31=1;
    A32+B32=1;
    A33+B33=1;
    A34+B34=1;
    A35+B35=1;
    A36+B36=1;
    A37+B37=1;
    A38+B38=1;
    A39+B39=1;
    A40+B40=1;
    A41+B41=1;
    A42+B42=1;
    A43+B43=1;
    A44+B44=1;
    A45+B45=1;
    A46+B46=1;
    A47+B47=1;
    A48+B48=1;
    A49+B49=1;
    A50+B50=1;
    A51+B51=1;
    A52+B52=1;
    A53+B53=1;
    A54+B54=1;
    A55+B55=1;
    A56+B56=1;
    A57+B57=1;
    A58+B58=1;
    A59+B59=1;
    A60+B60=1;
    A61+B61=1;
    A62+B62=1;
    A63+B63=1;
    A64+B64=1;
    A65+B65=1;
    A66+B66=1;
    A67+B67=1;
    A68+B68=1;
    A69+B69=1;
    A70+B70=1;
    A71+B71=1;
    A72+B72=1;
    A73+B73=1;
    A74+B74=1;
    A75+B75=1;
    A76+B76=1;
    A77+B77=1;
    A78+B78=1;
    A79+B79=1;
    A80+B80=1;
    A81+B81=1;
    A82+B82=1;
    A83+B83=1;
    A84+B84=1;
    A85+B85=1;
    A86+B86=1;
    A87+B87=1;
    A88+B88=1;
    A89+B89=1;
    A90+B90=1;
    A91+B91=1;
    A92+B92=1;
    A93+B93=1;
    A94+B94=1;
    A95+B95=1;
    A96+B96=1;
    A97+B97=1;
    A98+B98=1;
    A99+B99=1;
    A100+B100=1;
    A101+B101=1;
    A102+B102=1;
    A103+B103=1;
    A104+B104=1;
    A105+B105=1;
    A106+B106=1;
    A107+B107=1;
    A108+B108=1;
    A1+A2+A3+2 x1>=2;
    A4+A5+1 x2>=1;
    A6+A7+A8+A9+A10+A11+1 x3>=1;
    A12+A13+A14+A15+3 x4>=3;
    A16+A17+A18+A19+1 x5>=1;
    B1+A20+A21+A22+A23+A24+6 x6>=6;
    A25+A26+2 x7>=2;
    B25+A27+A28+A29+A30+A31+4 x8>=4;
    A32+A33+A34+A35+2 x9>=2;
    B4+A36+A37+A38+3 x10>=3;
    B12+B27+A39+A40+A41+2 x11>=2;
    A42+A43+A44+A45+A46+A47+A48+A49+6 x12>=6;
    A50+A51+A52+2 x13>=2;
    B16+B39+A53+A54+A55+A56+6 x14>=6;
    B6+B36+A57+1 x15>=1;
    A58+A59+A60+A61+4 x16>=4;
    A62+A63+1 x17>=1;
    B7+B53+A64+A65+A66+4 x18>=4;
    B17+B58+A67+A68+A69+3 x19>=3;
    B13+B20+A70+A71+A72+A73+5 x20>=5;
    B26+A74+1 x21>=1;
    B62+A75+2 x22>=2;
    B59+A76+A77+3 x23>=3;
    B21+A78+1 x24>=1;
    B28+B78+A79+1 x25>=1;
    B22+B40+A80+A81+A82+A83+A84+5 x26>=5;
    B67+B74+B76+A85+A86+1 x27>=1;
    B23+B50+2 x28>=2;
    B2+A87+A88+A89+1 x29>=1;
    B70+B80+A90+1 x30>=1;
    B8+B63+A91+3 x31>=3;
    B29+B64+B85+A92+A93+4 x32>=4;
    B3+B32+B37+B54+B71+B79+A94+3 x33>=3;
    B14+B51+A95+A96+3 x34>=3;
    B65+B86+A97+1 x35>=1;
    B18+B42+A98+1 x36>=1;
    B9+B43+B60+B72+B87+B92+A99+A100+A101+4 x37>=4;
    B33+B44+B81+B94+B99+A102+1 x38>=1;
    B19+B45+A103+A104+1 x39>=1;
    B46+B61+B68+B82+B88+B90+B103+5 x40>=5;
    B47+B83+A105+3 x41>=3;
    B24+B55+B89+A106+3 x42>=3;
    B15+B30+B57+B95+B100+B105+3 x43>=3;
    B31+B38+B48+B66+A107+A108+4 x44>=4;
    B52+B98+1 x45>=1;
    B5+B10+B34+B77+B84+B97+B102+B104+B106+2 x46>=2;
    B11+B35+B69+B96+1 x47>=1;
    B56+B75+B91+2 x48>=2;
    B41+B49+B101+B107+4 x49>=4;
    B73+B93+B108+1 x50>=1;
bin A1,B1,A2,B2,A3,B3,A4,B4,A5,B5,A6,B6,A7,B7,A8,B8,A9,B9,A10,B10,A11,B11,A12,B12,A13,B13,A14,B14,A15,B15,A16,B16,A17,B17,A18,B18,A19,B19,A20,B20,A21,B21,A22,B22,A23,B23,A24,B24,A25,B25,A26,B26,A27,B27,A28,B28,A29,B29,A30,B30,A31,B31,A32,B32,A33,B33,A34,B34,A35,B35,A36,B36,A37,B37,A38,B38,A39,B39,A40,B40,A41,B41,A42,B42,A43,B43,A44,B44,A45,B45,A46,B46,A47,B47,A48,B48,A49,B49,A50,B50,A51,B51,A52,B52,A53,B53,A54,B54,A55,B55,A56,B56,A57,B57,A58,B58,A59,B59,A60,B60,A61,B61,A62,B62,A63,B63,A64,B64,A65,B65,A66,B66,A67,B67,A68,B68,A69,B69,A70,B70,A71,B71,A72,B72,A73,B73,A74,B74,A75,B75,A76,B76,A77,B77,A78,B78,A79,B79,A80,B80,A81,B81,A82,B82,A83,B83,A84,B84,A85,B85,A86,B86,A87,B87,A88,B88,A89,B89,A90,B90,A91,B91,A92,B92,A93,B93,A94,B94,A95,B95,A96,B96,A97,B97,A98,B98,A99,B99,A100,B100,A101,B101,A102,B102,A103,B103,A104,B104,A105,B105,A106,B106,A107,B107,A108,B108,x1,x2,x3,x4,x5,x6,x7,x8,x9,x10,x11,x12,x13,x14,x15,x16,x17,x18,x19,x20,x21,x22,x23,x24,x25,x26,x27,x28,x29,x30,x31,x32,x33,x34,x35,x36,x37,x38,x39,x40,x41,x42,x43,x44,x45,x46,x47,x48,x49,x50;